Route #1: 20 29 30 21 22 26 23 24 25 28 27 42 44 43 46 53 45 52 48 47 50 70 51 49 41 55 54
Route #2: 32 31 34 56 57 59 39 68 40 38 37 69 67 66 65 64 63 62 58 61 60 14 19 2 15 17 16 12 13
Route #3: 1 11
Route #4: 36 35 33 18 71 6 10 5 3 8 7 4 9
Cost 251